100
120
99
98
97
96
95
94
93
93
91
90
89
88
87
87
86
86
85
84
83
82
79
79
78
77
77
77
77
73
73
72
71
71
70
68
67
63
63
62
61
61
61
61
60
59
57
56
52
51
49
48
47
47
47
46
45
44
44
44
44
43
43
42
42
39
39
39
34
33
33
32
31
31
28
28
27
25
25
24
24
24
24
22
21
20
18
17
17
16
14
14
13
10
10
9
9
7
7
7
7
6
